(set-logic HORN)
(declare-fun state (Int (Array Int Int) (Array Int Int) (Array Int Int) (Array Int Int) Int Int (Array Int Int) (Array Int Int) Int Int Int Int Int Int Int Int Int Int Int Int Int Int Int Int Int Int Int Int Int Int Int Bool Bool Bool (Array Int Int) Int Int (Array Int Int) Int Int Int) Bool)
(assert (forall ((|hhv_ULTIMATE.start_L-1_0_Int| Int) (|hbv_ULTIMATE.start_ULTIMATE.startENTRY_1_Array_Int_Int| (Array Int Int)) (|hhv_ULTIMATE.start_L-1_2_Array_Int_Int| (Array Int Int)) (|hhv_ULTIMATE.start_L-1_3_Array_Int_Array_Int_Int| (Array Int Int)) (|hhv_ULTIMATE.start_L-1_4_Array_Int_Array_Int_Int| (Array Int Int)) (|hbv_ULTIMATE.start_ULTIMATE.startENTRY_5_Int| Int) (|hhv_ULTIMATE.start_L-1_6_Int| Int) (|hhv_ULTIMATE.start_L-1_7_Array_Int_Int| (Array Int Int)) (|hhv_ULTIMATE.start_L-1_8_Array_Int_Int| (Array Int Int)) (|hbv_ULTIMATE.start_ULTIMATE.startENTRY_9_Int| Int) (|hhv_ULTIMATE.start_L-1_10_Int| Int) (|hhv_ULTIMATE.start_L-1_11_Int| Int) (|hhv_ULTIMATE.start_L-1_12_Int| Int) (|hhv_ULTIMATE.start_L-1_13_Int| Int) (|hhv_ULTIMATE.start_L-1_14_Int| Int) (|hhv_ULTIMATE.start_L-1_15_Int| Int) (|hhv_ULTIMATE.start_L-1_16_Int| Int) (|hhv_ULTIMATE.start_L-1_17_Int| Int) (|hhv_ULTIMATE.start_L-1_18_Int| Int) (|hhv_ULTIMATE.start_L-1_19_Int| Int) (|hhv_ULTIMATE.start_L-1_20_Int| Int) (|hhv_ULTIMATE.start_L-1_21_Int| Int) (|hhv_ULTIMATE.start_L-1_22_Int| Int) (|hhv_ULTIMATE.start_L-1_23_Int| Int) (|hhv_ULTIMATE.start_L-1_24_Int| Int) (|hhv_ULTIMATE.start_L-1_25_Int| Int) (|hhv_ULTIMATE.start_L-1_26_Int| Int) (|hhv_ULTIMATE.start_L-1_27_Int| Int) (|hhv_ULTIMATE.start_L-1_28_Int| Int) (|hhv_ULTIMATE.start_L-1_29_Int| Int) (|hhv_ULTIMATE.start_L-1_30_Int| Int) (|hhv_ULTIMATE.start_L-1_31_Int| Int) (|hhv_ULTIMATE.start_L-1_32_Bool| Bool) (|.loc.3| Bool) (|.loc.4| Bool) (|hbv_ULTIMATE.start_L-1_1_Array_Int_Int| (Array Int Int)) (|hbv_ULTIMATE.start_L16_27_Int_0| Int) (|hbv_ULTIMATE.start_L16_23_Int_0| Int) (|hbv_ULTIMATE.start_L16_1_Array_Int_Int_0| (Array Int Int)) (|hbv_ULTIMATE.start_L16_25_Int_0| Int) (|hbv_ULTIMATE.start_L16_25_Int| Int) (|hbv_ULTIMATE.start_L16_29_Int_0| Int) (|.x.140| Int) (|.x.138| (Array Int Int)) (|.x.136| Int) (|.x.134| (Array Int Int)) (|.x.130| Int) (|.x.132| (Array Int Int)) (|.loc.5| Bool) (|.loc.6| Bool) (|.x.133| (Array Int Int)) (|.x.156| Int) (|.x.141| Int) (|.x.153| Int) (|.x.143| Int) (|.x.148| Int) (|.x.159| Int) (|.x.157| Int) (|.x.142| Int) (|.x.149| Int) (|.x.160| Int) (|.x.144| Int) (|.x.158| Int) (|.x.131| (Array Int Int)) (|.x.137| (Array Int Int)) (|.x.146| Int) (|.x.161| Int) (|.x.151| Int) (|.x.147| Int) (|.x.145| Int) (|.x.139| Int) (|.x.135| Int) (|hhv_ULTIMATE.start_ULTIMATE.startEXIT_32_Bool| Bool) (|.x.150| Int) (|.x.152| Int) (|.x.154| Int) (|.x.155| Int) (|.xtv.1| (Array Int Int)) (|.xtv.2| Int) (|.xtv.3| Int) (|.xtv.4| (Array Int Int)) (|.xtv.5| Int) (|.xtv.6| Int) (|.xtv.7| Int)) (=> (and (and (not .loc.4) (not .loc.3)) (and (and (and (and (and (= hbv_ULTIMATE.start_ULTIMATE.startENTRY_1_Array_Int_Int hhv_ULTIMATE.start_L-1_2_Array_Int_Int) (not hhv_ULTIMATE.start_L-1_32_Bool)) (= hhv_ULTIMATE.start_L-1_7_Array_Int_Int hhv_ULTIMATE.start_L-1_8_Array_Int_Int)) (= hbv_ULTIMATE.start_ULTIMATE.startENTRY_5_Int hhv_ULTIMATE.start_L-1_6_Int)) (= hhv_ULTIMATE.start_L-1_3_Array_Int_Array_Int_Int hhv_ULTIMATE.start_L-1_4_Array_Int_Array_Int_Int)) (= hbv_ULTIMATE.start_ULTIMATE.startENTRY_9_Int hhv_ULTIMATE.start_L-1_10_Int))) (state |hhv_ULTIMATE.start_L-1_0_Int| |hbv_ULTIMATE.start_ULTIMATE.startENTRY_1_Array_Int_Int| |hhv_ULTIMATE.start_L-1_2_Array_Int_Int| |hhv_ULTIMATE.start_L-1_3_Array_Int_Array_Int_Int| |hhv_ULTIMATE.start_L-1_4_Array_Int_Array_Int_Int| |hbv_ULTIMATE.start_ULTIMATE.startENTRY_5_Int| |hhv_ULTIMATE.start_L-1_6_Int| |hhv_ULTIMATE.start_L-1_7_Array_Int_Int| |hhv_ULTIMATE.start_L-1_8_Array_Int_Int| |hbv_ULTIMATE.start_ULTIMATE.startENTRY_9_Int| |hhv_ULTIMATE.start_L-1_10_Int| |hhv_ULTIMATE.start_L-1_11_Int| |hhv_ULTIMATE.start_L-1_12_Int| |hhv_ULTIMATE.start_L-1_13_Int| |hhv_ULTIMATE.start_L-1_14_Int| |hhv_ULTIMATE.start_L-1_15_Int| |hhv_ULTIMATE.start_L-1_16_Int| |hhv_ULTIMATE.start_L-1_17_Int| |hhv_ULTIMATE.start_L-1_18_Int| |hhv_ULTIMATE.start_L-1_19_Int| |hhv_ULTIMATE.start_L-1_20_Int| |hhv_ULTIMATE.start_L-1_21_Int| |hhv_ULTIMATE.start_L-1_22_Int| |hhv_ULTIMATE.start_L-1_23_Int| |hhv_ULTIMATE.start_L-1_24_Int| |hhv_ULTIMATE.start_L-1_25_Int| |hhv_ULTIMATE.start_L-1_26_Int| |hhv_ULTIMATE.start_L-1_27_Int| |hhv_ULTIMATE.start_L-1_28_Int| |hhv_ULTIMATE.start_L-1_29_Int| |hhv_ULTIMATE.start_L-1_30_Int| |hhv_ULTIMATE.start_L-1_31_Int| |hhv_ULTIMATE.start_L-1_32_Bool| |.loc.3| |.loc.4| |hbv_ULTIMATE.start_L-1_1_Array_Int_Int| |hbv_ULTIMATE.start_L16_27_Int_0| |hbv_ULTIMATE.start_L16_23_Int_0| |hbv_ULTIMATE.start_L16_1_Array_Int_Int_0| |hbv_ULTIMATE.start_L16_25_Int_0| |hbv_ULTIMATE.start_L16_25_Int| |hbv_ULTIMATE.start_L16_29_Int_0|))))
(assert (forall ((|hhv_ULTIMATE.start_L-1_0_Int| Int) (|hbv_ULTIMATE.start_ULTIMATE.startENTRY_1_Array_Int_Int| (Array Int Int)) (|hhv_ULTIMATE.start_L-1_2_Array_Int_Int| (Array Int Int)) (|hhv_ULTIMATE.start_L-1_3_Array_Int_Array_Int_Int| (Array Int Int)) (|hhv_ULTIMATE.start_L-1_4_Array_Int_Array_Int_Int| (Array Int Int)) (|hbv_ULTIMATE.start_ULTIMATE.startENTRY_5_Int| Int) (|hhv_ULTIMATE.start_L-1_6_Int| Int) (|hhv_ULTIMATE.start_L-1_7_Array_Int_Int| (Array Int Int)) (|hhv_ULTIMATE.start_L-1_8_Array_Int_Int| (Array Int Int)) (|hbv_ULTIMATE.start_ULTIMATE.startENTRY_9_Int| Int) (|hhv_ULTIMATE.start_L-1_10_Int| Int) (|hhv_ULTIMATE.start_L-1_11_Int| Int) (|hhv_ULTIMATE.start_L-1_12_Int| Int) (|hhv_ULTIMATE.start_L-1_13_Int| Int) (|hhv_ULTIMATE.start_L-1_14_Int| Int) (|hhv_ULTIMATE.start_L-1_15_Int| Int) (|hhv_ULTIMATE.start_L-1_16_Int| Int) (|hhv_ULTIMATE.start_L-1_17_Int| Int) (|hhv_ULTIMATE.start_L-1_18_Int| Int) (|hhv_ULTIMATE.start_L-1_19_Int| Int) (|hhv_ULTIMATE.start_L-1_20_Int| Int) (|hhv_ULTIMATE.start_L-1_21_Int| Int) (|hhv_ULTIMATE.start_L-1_22_Int| Int) (|hhv_ULTIMATE.start_L-1_23_Int| Int) (|hhv_ULTIMATE.start_L-1_24_Int| Int) (|hhv_ULTIMATE.start_L-1_25_Int| Int) (|hhv_ULTIMATE.start_L-1_26_Int| Int) (|hhv_ULTIMATE.start_L-1_27_Int| Int) (|hhv_ULTIMATE.start_L-1_28_Int| Int) (|hhv_ULTIMATE.start_L-1_29_Int| Int) (|hhv_ULTIMATE.start_L-1_30_Int| Int) (|hhv_ULTIMATE.start_L-1_31_Int| Int) (|hhv_ULTIMATE.start_L-1_32_Bool| Bool) (|.loc.3| Bool) (|.loc.4| Bool) (|hbv_ULTIMATE.start_L-1_1_Array_Int_Int| (Array Int Int)) (|hbv_ULTIMATE.start_L16_27_Int_0| Int) (|hbv_ULTIMATE.start_L16_23_Int_0| Int) (|hbv_ULTIMATE.start_L16_1_Array_Int_Int_0| (Array Int Int)) (|hbv_ULTIMATE.start_L16_25_Int_0| Int) (|hbv_ULTIMATE.start_L16_25_Int| Int) (|hbv_ULTIMATE.start_L16_29_Int_0| Int) (|.x.140| Int) (|.x.138| (Array Int Int)) (|.x.136| Int) (|.x.134| (Array Int Int)) (|.x.130| Int) (|.x.132| (Array Int Int)) (|.loc.5| Bool) (|.loc.6| Bool) (|.x.133| (Array Int Int)) (|.x.156| Int) (|.x.141| Int) (|.x.153| Int) (|.x.143| Int) (|.x.148| Int) (|.x.159| Int) (|.x.157| Int) (|.x.142| Int) (|.x.149| Int) (|.x.160| Int) (|.x.144| Int) (|.x.158| Int) (|.x.131| (Array Int Int)) (|.x.137| (Array Int Int)) (|.x.146| Int) (|.x.161| Int) (|.x.151| Int) (|.x.147| Int) (|.x.145| Int) (|.x.139| Int) (|.x.135| Int) (|hhv_ULTIMATE.start_ULTIMATE.startEXIT_32_Bool| Bool) (|.x.150| Int) (|.x.152| Int) (|.x.154| Int) (|.x.155| Int) (|.xtv.1| (Array Int Int)) (|.xtv.2| Int) (|.xtv.3| Int) (|.xtv.4| (Array Int Int)) (|.xtv.5| Int) (|.xtv.6| Int) (|.xtv.7| Int)) (=> (and (state |hhv_ULTIMATE.start_L-1_0_Int| |hbv_ULTIMATE.start_ULTIMATE.startENTRY_1_Array_Int_Int| |hhv_ULTIMATE.start_L-1_2_Array_Int_Int| |hhv_ULTIMATE.start_L-1_3_Array_Int_Array_Int_Int| |hhv_ULTIMATE.start_L-1_4_Array_Int_Array_Int_Int| |hbv_ULTIMATE.start_ULTIMATE.startENTRY_5_Int| |hhv_ULTIMATE.start_L-1_6_Int| |hhv_ULTIMATE.start_L-1_7_Array_Int_Int| |hhv_ULTIMATE.start_L-1_8_Array_Int_Int| |hbv_ULTIMATE.start_ULTIMATE.startENTRY_9_Int| |hhv_ULTIMATE.start_L-1_10_Int| |hhv_ULTIMATE.start_L-1_11_Int| |hhv_ULTIMATE.start_L-1_12_Int| |hhv_ULTIMATE.start_L-1_13_Int| |hhv_ULTIMATE.start_L-1_14_Int| |hhv_ULTIMATE.start_L-1_15_Int| |hhv_ULTIMATE.start_L-1_16_Int| |hhv_ULTIMATE.start_L-1_17_Int| |hhv_ULTIMATE.start_L-1_18_Int| |hhv_ULTIMATE.start_L-1_19_Int| |hhv_ULTIMATE.start_L-1_20_Int| |hhv_ULTIMATE.start_L-1_21_Int| |hhv_ULTIMATE.start_L-1_22_Int| |hhv_ULTIMATE.start_L-1_23_Int| |hhv_ULTIMATE.start_L-1_24_Int| |hhv_ULTIMATE.start_L-1_25_Int| |hhv_ULTIMATE.start_L-1_26_Int| |hhv_ULTIMATE.start_L-1_27_Int| |hhv_ULTIMATE.start_L-1_28_Int| |hhv_ULTIMATE.start_L-1_29_Int| |hhv_ULTIMATE.start_L-1_30_Int| |hhv_ULTIMATE.start_L-1_31_Int| |hhv_ULTIMATE.start_L-1_32_Bool| |.loc.3| |.loc.4| |hbv_ULTIMATE.start_L-1_1_Array_Int_Int| |hbv_ULTIMATE.start_L16_27_Int_0| |hbv_ULTIMATE.start_L16_23_Int_0| |hbv_ULTIMATE.start_L16_1_Array_Int_Int_0| |hbv_ULTIMATE.start_L16_25_Int_0| |hbv_ULTIMATE.start_L16_25_Int| |hbv_ULTIMATE.start_L16_29_Int_0|) (let ((.def_53 (not .loc.3))) (let ((.def_90 (= hbv_ULTIMATE.start_L16_25_Int 0))) (let ((.def_97 (select (select .x.133 .x.156) .x.141))) (let ((.def_109 (<= (- 2147483648) .x.148))) (let ((.def_112 (<= .x.148 2147483647))) (let ((.def_135 (= .x.149 .x.160))) (let ((.def_138 (= .x.160 .x.144))) (let ((.def_141 (store hbv_ULTIMATE.start_L-1_1_Array_Int_Int .x.153 1))) (let ((.def_148 (= .x.141 .x.158))) (let ((.def_161 (= .x.142 .x.146))) (let ((.def_166 (= .x.146 .x.161))) (let ((.def_176 (= .x.148 (ite (and (= .x.161 .x.151) (= .x.144 .x.147)) 1 0)))) (let ((.def_180 (= .x.158 .x.147))) (let ((.def_184 (= .x.156 .x.145))) (let ((.def_186 (= .x.151 .x.145))) (let ((.def_199 (or hhv_ULTIMATE.start_L-1_32_Bool (and (= hbv_ULTIMATE.start_L-1_1_Array_Int_Int (store hbv_ULTIMATE.start_ULTIMATE.startENTRY_1_Array_Int_Int 0 0)) (and (= .x.139 0) (= .x.135 0)))))) (let ((.def_203 (= hhv_ULTIMATE.start_L-1_20_Int .x.150))) (let ((.def_239 (= hhv_ULTIMATE.start_L-1_32_Bool hhv_ULTIMATE.start_ULTIMATE.startEXIT_32_Bool))) (let ((.def_279 (store hbv_ULTIMATE.start_L-1_1_Array_Int_Int hbv_ULTIMATE.start_L16_23_Int_0 1))) (let ((.def_336 (not .loc.6))) (and (and (not .loc.4) (and (= hhv_ULTIMATE.start_L-1_10_Int .x.140) (and (= hhv_ULTIMATE.start_L-1_8_Array_Int_Int .x.138) (and (= hhv_ULTIMATE.start_L-1_6_Int .x.136) (and (= hhv_ULTIMATE.start_L-1_4_Array_Int_Array_Int_Int .x.134) (and (= hhv_ULTIMATE.start_L-1_0_Int .x.130) (= hhv_ULTIMATE.start_L-1_2_Array_Int_Int .x.132))))))) (or (or (and (and (not .loc.5) .loc.6) (or (and .def_53 (and (or hhv_ULTIMATE.start_L-1_32_Bool (not .def_90)) (and (or hhv_ULTIMATE.start_L-1_32_Bool (and (and (and (= hbv_ULTIMATE.start_L16_25_Int .def_97) (= .x.133 (store hhv_ULTIMATE.start_L-1_3_Array_Int_Array_Int_Int .x.153 (store (select hhv_ULTIMATE.start_L-1_3_Array_Int_Array_Int_Int .x.153) .x.143 .x.148)))) .def_109) .def_112)) (and (or hhv_ULTIMATE.start_L-1_32_Bool (and (= (select hbv_ULTIMATE.start_L-1_1_Array_Int_Int .x.153) 0) (and (not (<= .x.130 .x.153)) (and (and (and (= .x.159 0) (and (and (not (= .x.153 0)) (and (= .x.141 .x.143) (and (and (not (= .x.157 0)) (and (not (<= .x.130 .x.157)) (and (and (= .x.157 .x.142) (and (= .x.143 0) (and (and (and (and (and (and (and (and (= .x.156 .x.153) .def_135) .def_138) (= (select .def_141 .x.157) 0)) (= .x.159 .x.149)) .def_148) (= (store .def_141 .x.157 1) .x.131)) (= (store (store hhv_ULTIMATE.start_L-1_7_Array_Int_Int .x.153 4) .x.157 4) .x.137)) .def_161))) .def_166))) .def_176))) .def_180)) .def_184) .def_186)))) (and (and .def_199 hhv_ULTIMATE.start_ULTIMATE.startEXIT_32_Bool) .def_203))))) (and (or hhv_ULTIMATE.start_L-1_32_Bool (= hhv_ULTIMATE.start_L-1_24_Int .x.150)) (and (= hbv_ULTIMATE.start_ULTIMATE.startENTRY_1_Array_Int_Int .x.131) (and (= hhv_ULTIMATE.start_L-1_3_Array_Int_Array_Int_Int .x.133) (and (= hbv_ULTIMATE.start_ULTIMATE.startENTRY_5_Int .x.135) (and (= hhv_ULTIMATE.start_L-1_7_Array_Int_Int .x.137) (and (= hbv_ULTIMATE.start_ULTIMATE.startENTRY_9_Int .x.139) (and (= hhv_ULTIMATE.start_L-1_11_Int .x.141) (and (= hhv_ULTIMATE.start_L-1_12_Int .x.142) (and (= hhv_ULTIMATE.start_L-1_13_Int .x.143) (and (= hhv_ULTIMATE.start_L-1_14_Int .x.144) (and (= hhv_ULTIMATE.start_L-1_15_Int .x.145) (and (= hhv_ULTIMATE.start_L-1_16_Int .x.146) (and (= hhv_ULTIMATE.start_L-1_17_Int .x.147) (and (= hhv_ULTIMATE.start_L-1_18_Int .x.148) (and (= hhv_ULTIMATE.start_L-1_19_Int .x.149) (and (= hhv_ULTIMATE.start_L-1_21_Int .x.151) (and (= hhv_ULTIMATE.start_L-1_22_Int .x.152) (and (= hhv_ULTIMATE.start_L-1_23_Int .x.153) (and (= hhv_ULTIMATE.start_L-1_24_Int .x.154) (and (= hhv_ULTIMATE.start_L-1_25_Int .x.155) (and (= hhv_ULTIMATE.start_L-1_26_Int .x.156) (and (= hhv_ULTIMATE.start_L-1_27_Int .x.157) (and (= hhv_ULTIMATE.start_L-1_28_Int .x.158) (and (= hhv_ULTIMATE.start_L-1_29_Int .x.159) (and (= hhv_ULTIMATE.start_L-1_30_Int .x.160) (and (= hhv_ULTIMATE.start_L-1_31_Int .x.161) (and .loc.3 .def_239))))))))))))))))))))))))))))) (and (or hhv_ULTIMATE.start_ULTIMATE.startEXIT_32_Bool (and (= (select hbv_ULTIMATE.start_L-1_1_Array_Int_Int hbv_ULTIMATE.start_L16_23_Int_0) 0) (and (and .def_186 (and .def_184 (and (= hbv_ULTIMATE.start_L16_29_Int_0 0) (and .def_180 (and (not (= hbv_ULTIMATE.start_L16_23_Int_0 0)) (and (and .def_176 (and (not (= hbv_ULTIMATE.start_L16_27_Int_0 0)) (and (and .def_166 (and (and .def_90 (and .def_161 (and (= .x.137 (store (store hhv_ULTIMATE.start_L-1_7_Array_Int_Int hbv_ULTIMATE.start_L16_23_Int_0 4) hbv_ULTIMATE.start_L16_27_Int_0 4)) (and (= hbv_ULTIMATE.start_L16_1_Array_Int_Int_0 (store .def_279 hbv_ULTIMATE.start_L16_27_Int_0 1)) (and .def_148 (and (= hbv_ULTIMATE.start_L16_29_Int_0 .x.149) (and (= (select .def_279 hbv_ULTIMATE.start_L16_27_Int_0) 0) (and .def_138 (and .def_135 (= hbv_ULTIMATE.start_L16_23_Int_0 .x.156)))))))))) (= hbv_ULTIMATE.start_L16_27_Int_0 .x.142))) (not (<= .x.130 hbv_ULTIMATE.start_L16_27_Int_0))))) (= hbv_ULTIMATE.start_L16_25_Int .x.141))))))) (not (<= .x.130 hbv_ULTIMATE.start_L16_23_Int_0))))) (and (or hhv_ULTIMATE.start_ULTIMATE.startEXIT_32_Bool (and .def_112 (and .def_109 (and (= .x.133 (store hhv_ULTIMATE.start_L-1_3_Array_Int_Array_Int_Int hbv_ULTIMATE.start_L16_23_Int_0 (store (select hhv_ULTIMATE.start_L-1_3_Array_Int_Array_Int_Int hbv_ULTIMATE.start_L16_23_Int_0) hbv_ULTIMATE.start_L16_25_Int .x.148))) (= hbv_ULTIMATE.start_L16_25_Int_0 .def_97))))) (and (or hhv_ULTIMATE.start_ULTIMATE.startEXIT_32_Bool (and (= hbv_ULTIMATE.start_L16_25_Int_0 0) (and (= .x.154 0) (= .x.131 (store (store hbv_ULTIMATE.start_L16_1_Array_Int_Int_0 hbv_ULTIMATE.start_L16_23_Int_0 0) hbv_ULTIMATE.start_L16_27_Int_0 0))))) (and (and .def_239 (and .loc.5 (and .def_53 (and .def_199 .def_203)))) .def_336))))) (and .def_336 (and .loc.5 (and .def_53 (and .def_203 (and .def_199 (and hhv_ULTIMATE.start_L-1_32_Bool hhv_ULTIMATE.start_ULTIMATE.startEXIT_32_Bool))))))))))))))))))))))))))))) (state |.x.130| |.x.131| |.x.132| |.x.133| |.x.134| |.x.135| |.x.136| |.x.137| |.x.138| |.x.139| |.x.140| |.x.141| |.x.142| |.x.143| |.x.144| |.x.145| |.x.146| |.x.147| |.x.148| |.x.149| |.x.150| |.x.151| |.x.152| |.x.153| |.x.154| |.x.155| |.x.156| |.x.157| |.x.158| |.x.159| |.x.160| |.x.161| |hhv_ULTIMATE.start_ULTIMATE.startEXIT_32_Bool| |.loc.5| |.loc.6| |.xtv.1| |.xtv.2| |.xtv.3| |.xtv.4| |.xtv.5| |.xtv.6| |.xtv.7|))))
(assert (forall ((|hhv_ULTIMATE.start_L-1_0_Int| Int) (|hbv_ULTIMATE.start_ULTIMATE.startENTRY_1_Array_Int_Int| (Array Int Int)) (|hhv_ULTIMATE.start_L-1_2_Array_Int_Int| (Array Int Int)) (|hhv_ULTIMATE.start_L-1_3_Array_Int_Array_Int_Int| (Array Int Int)) (|hhv_ULTIMATE.start_L-1_4_Array_Int_Array_Int_Int| (Array Int Int)) (|hbv_ULTIMATE.start_ULTIMATE.startENTRY_5_Int| Int) (|hhv_ULTIMATE.start_L-1_6_Int| Int) (|hhv_ULTIMATE.start_L-1_7_Array_Int_Int| (Array Int Int)) (|hhv_ULTIMATE.start_L-1_8_Array_Int_Int| (Array Int Int)) (|hbv_ULTIMATE.start_ULTIMATE.startENTRY_9_Int| Int) (|hhv_ULTIMATE.start_L-1_10_Int| Int) (|hhv_ULTIMATE.start_L-1_11_Int| Int) (|hhv_ULTIMATE.start_L-1_12_Int| Int) (|hhv_ULTIMATE.start_L-1_13_Int| Int) (|hhv_ULTIMATE.start_L-1_14_Int| Int) (|hhv_ULTIMATE.start_L-1_15_Int| Int) (|hhv_ULTIMATE.start_L-1_16_Int| Int) (|hhv_ULTIMATE.start_L-1_17_Int| Int) (|hhv_ULTIMATE.start_L-1_18_Int| Int) (|hhv_ULTIMATE.start_L-1_19_Int| Int) (|hhv_ULTIMATE.start_L-1_20_Int| Int) (|hhv_ULTIMATE.start_L-1_21_Int| Int) (|hhv_ULTIMATE.start_L-1_22_Int| Int) (|hhv_ULTIMATE.start_L-1_23_Int| Int) (|hhv_ULTIMATE.start_L-1_24_Int| Int) (|hhv_ULTIMATE.start_L-1_25_Int| Int) (|hhv_ULTIMATE.start_L-1_26_Int| Int) (|hhv_ULTIMATE.start_L-1_27_Int| Int) (|hhv_ULTIMATE.start_L-1_28_Int| Int) (|hhv_ULTIMATE.start_L-1_29_Int| Int) (|hhv_ULTIMATE.start_L-1_30_Int| Int) (|hhv_ULTIMATE.start_L-1_31_Int| Int) (|hhv_ULTIMATE.start_L-1_32_Bool| Bool) (|.loc.3| Bool) (|.loc.4| Bool) (|hbv_ULTIMATE.start_L-1_1_Array_Int_Int| (Array Int Int)) (|hbv_ULTIMATE.start_L16_27_Int_0| Int) (|hbv_ULTIMATE.start_L16_23_Int_0| Int) (|hbv_ULTIMATE.start_L16_1_Array_Int_Int_0| (Array Int Int)) (|hbv_ULTIMATE.start_L16_25_Int_0| Int) (|hbv_ULTIMATE.start_L16_25_Int| Int) (|hbv_ULTIMATE.start_L16_29_Int_0| Int) (|.x.140| Int) (|.x.138| (Array Int Int)) (|.x.136| Int) (|.x.134| (Array Int Int)) (|.x.130| Int) (|.x.132| (Array Int Int)) (|.loc.5| Bool) (|.loc.6| Bool) (|.x.133| (Array Int Int)) (|.x.156| Int) (|.x.141| Int) (|.x.153| Int) (|.x.143| Int) (|.x.148| Int) (|.x.159| Int) (|.x.157| Int) (|.x.142| Int) (|.x.149| Int) (|.x.160| Int) (|.x.144| Int) (|.x.158| Int) (|.x.131| (Array Int Int)) (|.x.137| (Array Int Int)) (|.x.146| Int) (|.x.161| Int) (|.x.151| Int) (|.x.147| Int) (|.x.145| Int) (|.x.139| Int) (|.x.135| Int) (|hhv_ULTIMATE.start_ULTIMATE.startEXIT_32_Bool| Bool) (|.x.150| Int) (|.x.152| Int) (|.x.154| Int) (|.x.155| Int) (|.xtv.1| (Array Int Int)) (|.xtv.2| Int) (|.xtv.3| Int) (|.xtv.4| (Array Int Int)) (|.xtv.5| Int) (|.xtv.6| Int) (|.xtv.7| Int)) (=> (state |hhv_ULTIMATE.start_L-1_0_Int| |hbv_ULTIMATE.start_ULTIMATE.startENTRY_1_Array_Int_Int| |hhv_ULTIMATE.start_L-1_2_Array_Int_Int| |hhv_ULTIMATE.start_L-1_3_Array_Int_Array_Int_Int| |hhv_ULTIMATE.start_L-1_4_Array_Int_Array_Int_Int| |hbv_ULTIMATE.start_ULTIMATE.startENTRY_5_Int| |hhv_ULTIMATE.start_L-1_6_Int| |hhv_ULTIMATE.start_L-1_7_Array_Int_Int| |hhv_ULTIMATE.start_L-1_8_Array_Int_Int| |hbv_ULTIMATE.start_ULTIMATE.startENTRY_9_Int| |hhv_ULTIMATE.start_L-1_10_Int| |hhv_ULTIMATE.start_L-1_11_Int| |hhv_ULTIMATE.start_L-1_12_Int| |hhv_ULTIMATE.start_L-1_13_Int| |hhv_ULTIMATE.start_L-1_14_Int| |hhv_ULTIMATE.start_L-1_15_Int| |hhv_ULTIMATE.start_L-1_16_Int| |hhv_ULTIMATE.start_L-1_17_Int| |hhv_ULTIMATE.start_L-1_18_Int| |hhv_ULTIMATE.start_L-1_19_Int| |hhv_ULTIMATE.start_L-1_20_Int| |hhv_ULTIMATE.start_L-1_21_Int| |hhv_ULTIMATE.start_L-1_22_Int| |hhv_ULTIMATE.start_L-1_23_Int| |hhv_ULTIMATE.start_L-1_24_Int| |hhv_ULTIMATE.start_L-1_25_Int| |hhv_ULTIMATE.start_L-1_26_Int| |hhv_ULTIMATE.start_L-1_27_Int| |hhv_ULTIMATE.start_L-1_28_Int| |hhv_ULTIMATE.start_L-1_29_Int| |hhv_ULTIMATE.start_L-1_30_Int| |hhv_ULTIMATE.start_L-1_31_Int| |hhv_ULTIMATE.start_L-1_32_Bool| |.loc.3| |.loc.4| |hbv_ULTIMATE.start_L-1_1_Array_Int_Int| |hbv_ULTIMATE.start_L16_27_Int_0| |hbv_ULTIMATE.start_L16_23_Int_0| |hbv_ULTIMATE.start_L16_1_Array_Int_Int_0| |hbv_ULTIMATE.start_L16_25_Int_0| |hbv_ULTIMATE.start_L16_25_Int| |hbv_ULTIMATE.start_L16_29_Int_0|) (not (and hhv_ULTIMATE.start_L-1_32_Bool (and .loc.4 (not .loc.3)))))))
(check-sat)
